(set-info :smt-lib-version 2.7)
(set-logic ALL)
(set-info :source |
Generated on: 2026-06-22
Generator: pog2smtlib-2.7 github.com/CLEARSY/pog2smtlib-2.7 (-l HO_ALL -rpX)
Application: Discharging a proof obligation generated by aTelierB from an anonymized B machine
Target solver: CVC5
Time limit: 1200.0
|)
(set-info :license "www.gnu.org/licenses/gpl-3.0.en.html")
(set-info :category "industrial")
(set-info :status unknown)

(define-sort |Z| () Int)
(declare-sort P 1)
(declare-datatype C (par (T1 T2) ((maplet (fst T1) (snd T2)))))
(define-sort |POW Z| () (P |Z|))
(define-sort |(Z x Z)| () (C |Z| |Z|))
(declare-fun |set.in Z| (|Z| |POW Z|) Bool)
(define-sort |POW (Z x Z)| () (P |(Z x Z)|))
(declare-fun |set.in (Z x Z)| (|(Z x Z)| |POW (Z x Z)|) Bool)
(define-sort |POW POW (Z x Z)| () (P |POW (Z x Z)|))
(declare-fun |set.subseteq (Z x Z)| (|POW (Z x Z)| |POW (Z x Z)|) Bool)
(assert (!
    (forall ((s |POW (Z x Z)|) (t |POW (Z x Z)|))
      (=
        (|set.subseteq (Z x Z)| s t)
        (forall ((e |(Z x Z)|)) (=> (|set.in (Z x Z)| e s) (|set.in (Z x Z)| e t)))
      )
    )
    :named |ax.set.subseteq (Z x Z)|))
(declare-fun |set.in POW (Z x Z)| (|POW (Z x Z)| |POW POW (Z x Z)|) Bool)
(declare-fun |sub-sets (Z x Z)| (|POW (Z x Z)|) |POW POW (Z x Z)|)
(assert (!
  (forall ((s |POW (Z x Z)|) (t |POW (Z x Z)|))
    (=
      (|set.in POW (Z x Z)| s (|sub-sets (Z x Z)| t))
      (|set.subseteq (Z x Z)| s t)))
  :named |ax.sub-sets (Z x Z)|))
(declare-fun |set.product Z Z| (|POW Z| |POW Z|) |POW (Z x Z)|)
(assert (!
  (forall ((s1 |POW Z|) (s2 |POW Z|))
    (forall ((p |(Z x Z)|))
      (= (|set.in (Z x Z)| p (|set.product Z Z| s1 s2))
        (and (|set.in Z| (fst p) s1) (|set.in Z| (snd p) s2)))))
  :named |ax.set.in.product.1 (Z x Z)|))
(assert (!
  (forall ((s1 |POW Z|) (s2 |POW Z|))
    (forall ((x1 |Z|) (x2 |Z|))
      (= (|set.in (Z x Z)| (maplet x1 x2) (|set.product Z Z| s1 s2))
        (and (|set.in Z| x1 s1) (|set.in Z| x2 s2)))))
  :named |ax.set.in.product.2 (Z x Z)|))
(declare-fun |rel.domain Z Z| (|POW (Z x Z)|) |POW Z|)
(assert (!
  (forall ((r |POW (Z x Z)|) (e |Z|))
    (= (|set.in Z| e (|rel.domain Z Z| r))
       (exists ((y |Z|)) (|set.in (Z x Z)| (maplet e y) r))))
  :named |ax:set.in.domain (Z x Z)|))
(declare-fun |relations Z Z| (|POW Z| |POW Z|) |POW POW (Z x Z)|)
(assert (!
  (forall ((X |POW Z|) (Y |POW Z|))
    (= (|relations Z Z| X Y)
       (|sub-sets (Z x Z)| (|set.product Z Z| X Y))))
    :named |def.relations (Z x Z)|))
(declare-fun |functions Z Z| (|POW Z| |POW Z|) |POW POW (Z x Z)|)
(assert (!
  (forall ((X |POW Z|) (Y |POW Z|))
    (forall ((f |POW (Z x Z)|))
      (= (|set.in POW (Z x Z)| f (|functions Z Z| X Y))
         (forall ((p |(Z x Z)|) (q |(Z x Z)|))
           (=> (and (|set.in (Z x Z)| p f) (|set.in (Z x Z)| q f) (= (fst p) (fst q)))
               (= (snd p) (snd q)))))))
:named |ax:set.in.functions (Z x Z)|))
(declare-fun |relations.total Z Z| (|POW Z| |POW Z|) |POW POW (Z x Z)|)
(assert (!
  (forall ((X |POW Z|) (Y |POW Z|))
    (forall ((f |POW (Z x Z)|))
      (= (|set.in POW (Z x Z)| f (|relations.total Z Z| X Y))
         (= (|rel.domain Z Z| f) X))))
 :named |ax:set.in.relations.total (Z x Z)|))
(declare-fun |functions.partial Z Z| (|POW Z| |POW Z|) |POW POW (Z x Z)|)
(assert (!
  (forall ((e1 |POW Z|) (e2 |POW Z|))
    (forall ((f |POW (Z x Z)|))
      (= (|set.in POW (Z x Z)| f (|functions.partial Z Z| e1 e2))
         (and (|set.in POW (Z x Z)| f (|relations Z Z| e1 e2))
              (|set.in POW (Z x Z)| f (|functions Z Z| e1 e2))))))
  :named |ax:def.pfun (Z x Z)|)
)
(define-const MININT |Z| (- 2147483648))
(define-const MAXINT |Z| 2147483647)
(define-sort |? Z| () (-> |Z| Bool))
(declare-const |set.intent Z| (-> |? Z| |POW Z|))
(assert (!
  (forall ((p |? Z|))
    (forall ((x |Z|))
      (= (|set.in Z| x (|set.intent Z| p))
         (@ p x))))
  :named |ax:set.in.intent Z|))
(declare-const s895 |POW (Z x Z)|)
(declare-const s888 |POW (Z x Z)|)
(declare-const s946 |Z|)
(declare-const s945 |Z|)
(declare-const s944 |Z|)
(declare-const s941 |Z|)
(declare-const s936 |Z|)
(declare-const s935 |Z|)
(declare-const s947 |Z|)
(declare-const s932 |Z|)
(declare-const s940 |Z|)
(declare-const s917 |Z|)
(declare-const s929 |Z|)
(declare-const s933 |Z|)
(declare-const s927 |Z|)
(declare-const s939 |Z|)
(declare-const s925 |Z|)
(declare-const s923 |Z|)
(declare-const s885 |POW (Z x Z)|)
(declare-const s902$1 |Z|)
(declare-const s909 |Z|)
(declare-const s769 |POW Z|)
(declare-const s916 |Z|)
(declare-const s930 |Z|)
(declare-const s905$1 |Z|)
(declare-const s907 |Z|)
(declare-const s924 |Z|)
(declare-const s908 |Z|)
(declare-const s922 |Z|)
(declare-const s919 |Z|)
(declare-const s906 |Z|)
(declare-const s905 |Z|)
(declare-const s903 |Z|)
(declare-const s943 |Z|)
(declare-const s903$1 |Z|)
(declare-const s920 |Z|)
(declare-const s914 |Z|)
(declare-const s938 |Z|)
(declare-const s910 |Z|)
(declare-const s921 |Z|)
(declare-const s904$1 |Z|)
(declare-const s918 |Z|)
(declare-const s904 |Z|)
(declare-const s931 |Z|)
(declare-const s913 |Z|)
(declare-const s431 |POW Z|)
(declare-const s427 |POW Z|)
(declare-const s892 |POW (Z x Z)|)
(declare-const s902 |Z|)
(declare-const s901 |Z|)
(declare-const s942 |Z|)
(declare-const s906$1 |Z|)
(declare-const s926 |Z|)
(declare-const s911 |Z|)
(declare-const s934 |Z|)
(declare-const s912 |Z|)
(declare-const s937 |Z|)
(declare-const s928 |Z|)
(declare-const s915 |Z|)
(declare-const s630 |Z|)
(declare-const s893 |POW (Z x Z)|)
(declare-const s886 |POW (Z x Z)|)
(declare-const s887 |POW (Z x Z)|)
(declare-const s896 |POW (Z x Z)|)
(declare-const s894 |POW (Z x Z)|)
(declare-const s889 |POW (Z x Z)|)
(declare-fun |functions.total Z Z| (|POW Z| |POW Z|) |POW POW (Z x Z)|)
(assert (!
  (forall ((e1 |POW Z|) (e2 |POW Z|))
    (forall ((f |POW (Z x Z)|))
      (= (|set.in POW (Z x Z)| f (|functions.total Z Z| e1 e2))
         (and (|set.in POW (Z x Z)| f (|functions.partial Z Z| e1 e2))
              (|set.in POW (Z x Z)| f (|relations.total Z Z| e1 e2))))))
  :named |ax:def.tfun (Z x Z)|))
(declare-fun |interval| (|Z| |Z|) |POW Z|)
 (assert (!
    (forall ((l |Z|) (u |Z|) (e |Z|))
        (= (|set.in Z| e (|interval| l u))
            (and (<= l e) (<= e u))))
    :named |ax.set.in.interval|))
(declare-const INT |POW Z|)
(assert (!
  (forall ((e |Z|)) (= (|set.in Z| e INT) (and (<= MININT e) (<= e MAXINT))))
  :named |ax.set.in.INT|))
(assert (!
  (forall ((s |POW Z|) (t |POW Z|))
    (=
      (= s t)
      (forall ((e |Z|)) (= (|set.in Z| e s) (|set.in Z| e t)))))
  :named |ax.set.eq Z|))
(declare-fun |rel.overwrite Z Z| (|POW (Z x Z)| |POW (Z x Z)|) |POW (Z x Z)|)
(assert (!
  (forall ((r1 |POW (Z x Z)|) (r2 |POW (Z x Z)|))
    (forall ((x |(Z x Z)|))
      (= (|set.in (Z x Z)| x (|rel.overwrite Z Z| r1 r2))
         (or (and (|set.in (Z x Z)| x r1)
                  (not (|set.in Z| (fst x) (|rel.domain Z Z| r1))))
             (|set.in (Z x Z)| x r2)))))
  :named |ax:set.in.overwrite (Z x Z)|))
(declare-fun |set.lambda Z Z| (|? Z| (-> |Z| |Z|)) |POW (Z x Z)|)
(assert (!
  (forall ((P |? Z|)(E (-> |Z| |Z|)))
    (forall ((p |(Z x Z)|))
      (= (|set.in (Z x Z)| p (|set.lambda Z Z| P E))
         (and (@ P (fst p))
              (= (snd p) (@ E (fst p)))))))
    :named |ax.set.in.lambda Z Z|))
(declare-fun |fun.eval Z Z| (|POW (Z x Z)| |Z|) |Z|)
 (assert (!
    (forall ((f |POW (Z x Z)|)(x |Z|))
        (|set.in (Z x Z)| (maplet x (|fun.eval Z Z| f x)) f))
    :named |ax.fun.eval (Z x Z)|))
(declare-fun |int.div| (|Z| |Z|) |Z|)
(assert (!
  (forall ((a |Z|) (b |Z|))
    (and
      (=> (and (<= 0 a) (< 0 b))
        (= (|int.div| a b) (div a b)))
      (=> (and (<= 0 a) (< b 0))
        (= (|int.div| a b) (- (div a (- b)))))
      (=> (and (< a 0) (< 0 b))
        (= (|int.div| a b) (- (div (- a) b))))
      (=> (and (<= a 0) (< b 0))
        (= (|int.div| a b) (div a b)))))
  :named |ax.int.div :1|))
  (assert (!
  (forall ((s |POW (Z x Z)|) (t |POW (Z x Z)|))
    (=
      (= s t)
      (forall ((e |(Z x Z)|)) (= (|set.in (Z x Z)| e s) (|set.in (Z x Z)| e t)))))
  :named |ax.set.eq (Z x Z)|))
(assert (!
  (|set.in Z| s901 s427)
  :named |Local_Hyp:0|))
(assert (!
  (>= s901 0)
  :named |Local_Hyp:1|))
(assert (!
  (|set.in Z| s902 s769)
  :named |Local_Hyp:2|))
(assert (!
  (|set.in Z| s903 s769)
  :named |Local_Hyp:3|))
(assert (!
  (|set.in Z| s904 s431)
  :named |Local_Hyp:4|))
(assert (!
  (|set.in Z| s905 s427)
  :named |Local_Hyp:5|))
(assert (!
  (|set.in Z| s906 s427)
  :named |Local_Hyp:6|))
(assert (!
  (|set.in Z| s902$1 s769)
  :named |Local_Hyp:8|))
(assert (!
  (|set.in Z| s903$1 s769)
  :named |Local_Hyp:9|))
(assert (!
  (|set.in Z| s904$1 s431)
  :named |Local_Hyp:10|))
(assert (!
  (|set.in Z| s905$1 s427)
  :named |Local_Hyp:11|))
(assert (!
  (|set.in Z| s906$1 s427)
  :named |Local_Hyp:12|))
(assert (!
  (|set.in Z| s908 s769)
  :named |Local_Hyp:13|))
(assert (!
  (|set.in Z| s909 s427)
  :named |Local_Hyp:14|))
(assert (!
  (|set.in Z| s910 s427)
  :named |Local_Hyp:15|))
(assert (!
  (|set.in Z| s911 s769)
  :named |Local_Hyp:16|))
(assert (!
  (|set.in Z| s912 s427)
  :named |Local_Hyp:17|))
(assert (!
  (|set.in Z| s913 s427)
  :named |Local_Hyp:18|))
(assert (!
  (|set.in Z| s914 s769)
  :named |Local_Hyp:19|))
(assert (!
  (|set.in Z| s915 s427)
  :named |Local_Hyp:20|))
(assert (!
  (|set.in Z| s916 s427)
  :named |Local_Hyp:21|))
(assert (!
  (|set.in Z| s917 s769)
  :named |Local_Hyp:22|))
(assert (!
  (|set.in Z| s918 s427)
  :named |Local_Hyp:23|))
(assert (!
  (|set.in Z| s919 s427)
  :named |Local_Hyp:24|))
(assert (!
  (|set.in Z| s920 s769)
  :named |Local_Hyp:25|))
(assert (!
  (|set.in Z| s921 s427)
  :named |Local_Hyp:26|))
(assert (!
  (|set.in Z| s922 s427)
  :named |Local_Hyp:27|))
(assert (!
  (|set.in Z| s923 s769)
  :named |Local_Hyp:28|))
(assert (!
  (|set.in Z| s924 s427)
  :named |Local_Hyp:29|))
(assert (!
  (|set.in Z| s925 s427)
  :named |Local_Hyp:30|))
(assert (!
  (|set.in Z| s926 s769)
  :named |Local_Hyp:31|))
(assert (!
  (|set.in Z| s927 s427)
  :named |Local_Hyp:32|))
(assert (!
  (|set.in Z| s928 s427)
  :named |Local_Hyp:33|))
(assert (!
  (|set.in Z| s929 s769)
  :named |Local_Hyp:34|))
(assert (!
  (|set.in Z| s930 s427)
  :named |Local_Hyp:35|))
(assert (!
  (|set.in Z| s931 s427)
  :named |Local_Hyp:36|))
(assert (!
  (|set.in Z| s932 s769)
  :named |Local_Hyp:37|))
(assert (!
  (|set.in Z| s933 s431)
  :named |Local_Hyp:38|))
(assert (!
  (|set.in Z| s934 s769)
  :named |Local_Hyp:39|))
(assert (!
  (|set.in Z| s935 s431)
  :named |Local_Hyp:40|))
(assert (!
  (|set.in Z| s936 s769)
  :named |Local_Hyp:41|))
(assert (!
  (|set.in Z| s937 s431)
  :named |Local_Hyp:42|))
(assert (!
  (|set.in Z| s938 s769)
  :named |Local_Hyp:43|))
(assert (!
  (|set.in Z| s939 s431)
  :named |Local_Hyp:44|))
(assert (!
  (|set.in Z| s940 s769)
  :named |Local_Hyp:45|))
(assert (!
  (|set.in Z| s941 s431)
  :named |Local_Hyp:46|))
(assert (!
  (|set.in Z| s942 s769)
  :named |Local_Hyp:47|))
(assert (!
  (|set.in Z| s943 s431)
  :named |Local_Hyp:48|))
(assert (!
  (|set.in Z| s944 s769)
  :named |Local_Hyp:49|))
(assert (!
  (|set.in Z| s945 s431)
  :named |Local_Hyp:50|))
(assert (!
  (|set.in Z| s946 s769)
  :named |Local_Hyp:51|))
(assert (!
  (|set.in Z| s947 s431)
  :named |Local_Hyp:52|))
(assert (!
  (not
  (> (|fun.eval Z Z| s885 2) s901))
  :named |Local_Hyp:54|))
(assert (!
  (not
  (|set.in Z| s901 (|rel.domain Z Z| (|set.lambda Z Z| (lambda ((_c0 |Z|))   (and
    (|set.in Z| _c0 s427)
    (< _c0 (|fun.eval Z Z| s885 1))))  (lambda ((_c0 |Z|)) (|fun.eval Z Z| s888 0))))))
  :named |Local_Hyp:55|))
(assert (!
  (not
  (> (|fun.eval Z Z| s885 3) s901))
  :named |Local_Hyp:57|))
(assert (!
  (not
  (|set.in Z| s901 (|rel.domain Z Z| (|set.lambda Z Z| (lambda ((_c0 |Z|))   (and
    (|set.in Z| _c0 s427)
    (<= (|fun.eval Z Z| s885 1) _c0)
    (< _c0 (|fun.eval Z Z| s885 2))))  (lambda ((_c0 |Z|)) (|fun.eval Z Z| s885 1))))))
  :named |Local_Hyp:58|))
(assert (!
  (not
  (> (|fun.eval Z Z| s885 4) s901))
  :named |Local_Hyp:60|))
(assert (!
  (not
  (|set.in Z| s901 (|rel.domain Z Z| (|set.lambda Z Z| (lambda ((_c0 |Z|))   (and
    (|set.in Z| _c0 s427)
    (<= (|fun.eval Z Z| s885 2) _c0)
    (< _c0 (|fun.eval Z Z| s885 3))))  (lambda ((_c0 |Z|)) (|fun.eval Z Z| s885 2))))))
  :named |Local_Hyp:61|))
(assert (!
  (not
  (> (|fun.eval Z Z| s885 5) s901))
  :named |Local_Hyp:63|))
(assert (!
  (not
  (|set.in Z| s901 (|rel.domain Z Z| (|set.lambda Z Z| (lambda ((_c0 |Z|))   (and
    (|set.in Z| _c0 s427)
    (<= (|fun.eval Z Z| s885 3) _c0)
    (< _c0 (|fun.eval Z Z| s885 4))))  (lambda ((_c0 |Z|)) (|fun.eval Z Z| s885 3))))))
  :named |Local_Hyp:64|))
(assert (!
  (> (|fun.eval Z Z| s885 6) s901)
  :named |Local_Hyp:65|))
(assert (!
  (= s427 INT)
  :named |Define:ctx:347|))
(assert (!
  (= s431 INT)
  :named |Define:ctx:351|))
(assert (!
  (|set.in Z| s630 s431)
  :named |Define:ctx:680|))
(assert (!
  (= s769 INT)
  :named |Define:ctx:1008|))
(assert (!
  (|set.in POW (Z x Z)| s885 (|functions.total Z Z| (|interval| 1 8) s427))
  :named |Define:ctx:1220|))
(assert (!
  (|set.in POW (Z x Z)| s886 (|functions.total Z Z| (|interval| 1 8) s427))
  :named |Define:ctx:1221|))
(assert (!
  (|set.in POW (Z x Z)| s887 (|functions.total Z Z| (|interval| 1 8) s769))
  :named |Define:ctx:1222|))
(assert (!
  (|set.in POW (Z x Z)| s888 (|functions.total Z Z| (|interval| 1 8) s427))
  :named |Define:ctx:1223|))
(assert (!
  (|set.in POW (Z x Z)| s889 (|functions.total Z Z| (|interval| 1 8) s769))
  :named |Define:ctx:1224|))
(assert (!
  (= (|fun.eval Z Z| s885 1) 0)
  :named |Define:ctx:1225|))
(assert (!
  (forall
  ((s890 |Z|))
  (=>
    (|set.in Z| s890 (|interval| 1 7))
    (<= (|fun.eval Z Z| s885 s890) (|fun.eval Z Z| s885 (+ s890 1)))))
  :named |Define:ctx:1226|))
(assert (!
  (forall
  ((s890 |Z|)(s891 |Z|))
  (=>
    (and
      (|set.in Z| s890 (|interval| 1 7))
      (|set.in Z| s891 s427)
      (< s891 (|fun.eval Z Z| s885 (+ s890 1))))
    (<= 0 (+ (|fun.eval Z Z| s888 s890) (|int.div| (* (|fun.eval Z Z| s889 s890) (- s891 (|fun.eval Z Z| s885 s890))) 128)))))
  :named |Define:ctx:1228|))
(assert (!
  (forall
  ((s891 |Z|))
  (=>
    (and
      (|set.in Z| s891 s427)
      (>= s891 (|fun.eval Z Z| s885 8)))
    (<= 0 (+ (|fun.eval Z Z| s888 8) (|int.div| (* (|fun.eval Z Z| s889 8) (- s891 (|fun.eval Z Z| s885 8))) 128)))))
  :named |Define:ctx:1229|))
(assert (!
  (|set.in POW (Z x Z)| s892 (|functions.partial Z Z| s427 s427))
  :named |Define:aprp:0|))
(assert (!
  (|set.in POW (Z x Z)| s893 (|functions.partial Z Z| s427 s427))
  :named |Define:aprp:1|))
(assert (!
  (|set.in POW (Z x Z)| s894 (|functions.partial Z Z| s427 s769))
  :named |Define:aprp:2|))
(assert (!
  (|set.in POW (Z x Z)| s895 (|functions.partial Z Z| s427 s431))
  :named |Define:aprp:3|))
(assert (!
  (|set.in POW (Z x Z)| s896 (|functions.partial Z Z| s427 s769))
  :named |Define:aprp:4|))
(assert (!
  (= s893 (|rel.overwrite Z Z| (|rel.overwrite Z Z| (|rel.overwrite Z Z| (|rel.overwrite Z Z| (|rel.overwrite Z Z| (|rel.overwrite Z Z| (|rel.overwrite Z Z| (|set.lambda Z Z| (lambda ((_c0 |Z|)) (and
  (|set.in Z| _c0 s427)
  (<= (|fun.eval Z Z| s885 8) _c0)))  (lambda ((_c0 |Z|)) (|fun.eval Z Z| s886 8))) (|set.lambda Z Z| (lambda ((_c0 |Z|)) (and
  (|set.in Z| _c0 s427)
  (<= (|fun.eval Z Z| s885 7) _c0)
  (< _c0 (|fun.eval Z Z| s885 8))))  (lambda ((_c0 |Z|)) (|fun.eval Z Z| s886 7)))) (|set.lambda Z Z| (lambda ((_c0 |Z|)) (and
  (|set.in Z| _c0 s427)
  (<= (|fun.eval Z Z| s885 6) _c0)
  (< _c0 (|fun.eval Z Z| s885 7))))  (lambda ((_c0 |Z|)) (|fun.eval Z Z| s886 6)))) (|set.lambda Z Z| (lambda ((_c0 |Z|)) (and
  (|set.in Z| _c0 s427)
  (<= (|fun.eval Z Z| s885 5) _c0)
  (< _c0 (|fun.eval Z Z| s885 6))))  (lambda ((_c0 |Z|)) (|fun.eval Z Z| s886 5)))) (|set.lambda Z Z| (lambda ((_c0 |Z|)) (and
  (|set.in Z| _c0 s427)
  (<= (|fun.eval Z Z| s885 4) _c0)
  (< _c0 (|fun.eval Z Z| s885 5))))  (lambda ((_c0 |Z|)) (|fun.eval Z Z| s886 4)))) (|set.lambda Z Z| (lambda ((_c0 |Z|)) (and
  (|set.in Z| _c0 s427)
  (<= (|fun.eval Z Z| s885 3) _c0)
  (< _c0 (|fun.eval Z Z| s885 4))))  (lambda ((_c0 |Z|)) (|fun.eval Z Z| s886 3)))) (|set.lambda Z Z| (lambda ((_c0 |Z|)) (and
  (|set.in Z| _c0 s427)
  (<= (|fun.eval Z Z| s885 2) _c0)
  (< _c0 (|fun.eval Z Z| s885 3))))  (lambda ((_c0 |Z|)) (|fun.eval Z Z| s886 2)))) (|set.lambda Z Z| (lambda ((_c0 |Z|)) (and
  (|set.in Z| _c0 s427)
  (< _c0 (|fun.eval Z Z| s885 2))))  (lambda ((_c0 |Z|)) (|fun.eval Z Z| s886 1)))))
  :named |Define:aprp:5|))
(assert (!
  (= s892 (|rel.overwrite Z Z| (|rel.overwrite Z Z| (|rel.overwrite Z Z| (|rel.overwrite Z Z| (|rel.overwrite Z Z| (|rel.overwrite Z Z| (|rel.overwrite Z Z| (|set.lambda Z Z| (lambda ((_c0 |Z|)) (and
  (|set.in Z| _c0 s427)
  (<= (|fun.eval Z Z| s885 8) _c0)))  (lambda ((_c0 |Z|)) (|fun.eval Z Z| s885 8))) (|set.lambda Z Z| (lambda ((_c0 |Z|)) (and
  (|set.in Z| _c0 s427)
  (<= (|fun.eval Z Z| s885 7) _c0)
  (< _c0 (|fun.eval Z Z| s885 8))))  (lambda ((_c0 |Z|)) (|fun.eval Z Z| s885 7)))) (|set.lambda Z Z| (lambda ((_c0 |Z|)) (and
  (|set.in Z| _c0 s427)
  (<= (|fun.eval Z Z| s885 6) _c0)
  (< _c0 (|fun.eval Z Z| s885 7))))  (lambda ((_c0 |Z|)) (|fun.eval Z Z| s885 6)))) (|set.lambda Z Z| (lambda ((_c0 |Z|)) (and
  (|set.in Z| _c0 s427)
  (<= (|fun.eval Z Z| s885 5) _c0)
  (< _c0 (|fun.eval Z Z| s885 6))))  (lambda ((_c0 |Z|)) (|fun.eval Z Z| s885 5)))) (|set.lambda Z Z| (lambda ((_c0 |Z|)) (and
  (|set.in Z| _c0 s427)
  (<= (|fun.eval Z Z| s885 4) _c0)
  (< _c0 (|fun.eval Z Z| s885 5))))  (lambda ((_c0 |Z|)) (|fun.eval Z Z| s885 4)))) (|set.lambda Z Z| (lambda ((_c0 |Z|)) (and
  (|set.in Z| _c0 s427)
  (<= (|fun.eval Z Z| s885 3) _c0)
  (< _c0 (|fun.eval Z Z| s885 4))))  (lambda ((_c0 |Z|)) (|fun.eval Z Z| s885 3)))) (|set.lambda Z Z| (lambda ((_c0 |Z|)) (and
  (|set.in Z| _c0 s427)
  (<= (|fun.eval Z Z| s885 2) _c0)
  (< _c0 (|fun.eval Z Z| s885 3))))  (lambda ((_c0 |Z|)) (|fun.eval Z Z| s885 2)))) (|set.lambda Z Z| (lambda ((_c0 |Z|)) (and
  (|set.in Z| _c0 s427)
  (< _c0 (|fun.eval Z Z| s885 2))))  (lambda ((_c0 |Z|)) (|fun.eval Z Z| s885 1)))))
  :named |Define:aprp:6|))
(assert (!
  (= s894 (|rel.overwrite Z Z| (|rel.overwrite Z Z| (|rel.overwrite Z Z| (|rel.overwrite Z Z| (|rel.overwrite Z Z| (|rel.overwrite Z Z| (|rel.overwrite Z Z| (|set.lambda Z Z| (lambda ((_c0 |Z|)) (and
  (|set.in Z| _c0 s427)
  (<= (|fun.eval Z Z| s885 8) _c0)))  (lambda ((_c0 |Z|)) (|fun.eval Z Z| s887 8))) (|set.lambda Z Z| (lambda ((_c0 |Z|)) (and
  (|set.in Z| _c0 s427)
  (<= (|fun.eval Z Z| s885 7) _c0)
  (< _c0 (|fun.eval Z Z| s885 8))))  (lambda ((_c0 |Z|)) (|fun.eval Z Z| s887 7)))) (|set.lambda Z Z| (lambda ((_c0 |Z|)) (and
  (|set.in Z| _c0 s427)
  (<= (|fun.eval Z Z| s885 6) _c0)
  (< _c0 (|fun.eval Z Z| s885 7))))  (lambda ((_c0 |Z|)) (|fun.eval Z Z| s887 6)))) (|set.lambda Z Z| (lambda ((_c0 |Z|)) (and
  (|set.in Z| _c0 s427)
  (<= (|fun.eval Z Z| s885 5) _c0)
  (< _c0 (|fun.eval Z Z| s885 6))))  (lambda ((_c0 |Z|)) (|fun.eval Z Z| s887 5)))) (|set.lambda Z Z| (lambda ((_c0 |Z|)) (and
  (|set.in Z| _c0 s427)
  (<= (|fun.eval Z Z| s885 4) _c0)
  (< _c0 (|fun.eval Z Z| s885 5))))  (lambda ((_c0 |Z|)) (|fun.eval Z Z| s887 4)))) (|set.lambda Z Z| (lambda ((_c0 |Z|)) (and
  (|set.in Z| _c0 s427)
  (<= (|fun.eval Z Z| s885 3) _c0)
  (< _c0 (|fun.eval Z Z| s885 4))))  (lambda ((_c0 |Z|)) (|fun.eval Z Z| s887 3)))) (|set.lambda Z Z| (lambda ((_c0 |Z|)) (and
  (|set.in Z| _c0 s427)
  (<= (|fun.eval Z Z| s885 2) _c0)
  (< _c0 (|fun.eval Z Z| s885 3))))  (lambda ((_c0 |Z|)) (|fun.eval Z Z| s887 2)))) (|set.lambda Z Z| (lambda ((_c0 |Z|)) (and
  (|set.in Z| _c0 s427)
  (< _c0 (|fun.eval Z Z| s885 2))))  (lambda ((_c0 |Z|)) (|fun.eval Z Z| s887 1)))))
  :named |Define:aprp:7|))
(assert (!
  (= s895 (|rel.overwrite Z Z| (|rel.overwrite Z Z| (|rel.overwrite Z Z| (|rel.overwrite Z Z| (|rel.overwrite Z Z| (|rel.overwrite Z Z| (|rel.overwrite Z Z| (|set.lambda Z Z| (lambda ((_c0 |Z|)) (and
  (|set.in Z| _c0 s427)
  (<= (|fun.eval Z Z| s885 8) _c0)))  (lambda ((_c0 |Z|)) (|fun.eval Z Z| s888 8))) (|set.lambda Z Z| (lambda ((_c0 |Z|)) (and
  (|set.in Z| _c0 s427)
  (<= (|fun.eval Z Z| s885 7) _c0)
  (< _c0 (|fun.eval Z Z| s885 8))))  (lambda ((_c0 |Z|)) (|fun.eval Z Z| s888 7)))) (|set.lambda Z Z| (lambda ((_c0 |Z|)) (and
  (|set.in Z| _c0 s427)
  (<= (|fun.eval Z Z| s885 6) _c0)
  (< _c0 (|fun.eval Z Z| s885 7))))  (lambda ((_c0 |Z|)) (|fun.eval Z Z| s888 6)))) (|set.lambda Z Z| (lambda ((_c0 |Z|)) (and
  (|set.in Z| _c0 s427)
  (<= (|fun.eval Z Z| s885 5) _c0)
  (< _c0 (|fun.eval Z Z| s885 6))))  (lambda ((_c0 |Z|)) (|fun.eval Z Z| s888 5)))) (|set.lambda Z Z| (lambda ((_c0 |Z|)) (and
  (|set.in Z| _c0 s427)
  (<= (|fun.eval Z Z| s885 4) _c0)
  (< _c0 (|fun.eval Z Z| s885 5))))  (lambda ((_c0 |Z|)) (|fun.eval Z Z| s888 4)))) (|set.lambda Z Z| (lambda ((_c0 |Z|)) (and
  (|set.in Z| _c0 s427)
  (<= (|fun.eval Z Z| s885 3) _c0)
  (< _c0 (|fun.eval Z Z| s885 4))))  (lambda ((_c0 |Z|)) (|fun.eval Z Z| s888 3)))) (|set.lambda Z Z| (lambda ((_c0 |Z|)) (and
  (|set.in Z| _c0 s427)
  (<= (|fun.eval Z Z| s885 2) _c0)
  (< _c0 (|fun.eval Z Z| s885 3))))  (lambda ((_c0 |Z|)) (|fun.eval Z Z| s888 2)))) (|set.lambda Z Z| (lambda ((_c0 |Z|)) (and
  (|set.in Z| _c0 s427)
  (< _c0 (|fun.eval Z Z| s885 2))))  (lambda ((_c0 |Z|)) (|fun.eval Z Z| s888 1)))))
  :named |Define:aprp:8|))
(assert (!
  (= s896 (|rel.overwrite Z Z| (|rel.overwrite Z Z| (|rel.overwrite Z Z| (|rel.overwrite Z Z| (|rel.overwrite Z Z| (|rel.overwrite Z Z| (|rel.overwrite Z Z| (|set.lambda Z Z| (lambda ((_c0 |Z|)) (and
  (|set.in Z| _c0 s427)
  (<= (|fun.eval Z Z| s885 8) _c0)))  (lambda ((_c0 |Z|)) (|fun.eval Z Z| s889 8))) (|set.lambda Z Z| (lambda ((_c0 |Z|)) (and
  (|set.in Z| _c0 s427)
  (<= (|fun.eval Z Z| s885 7) _c0)
  (< _c0 (|fun.eval Z Z| s885 8))))  (lambda ((_c0 |Z|)) (|fun.eval Z Z| s889 7)))) (|set.lambda Z Z| (lambda ((_c0 |Z|)) (and
  (|set.in Z| _c0 s427)
  (<= (|fun.eval Z Z| s885 6) _c0)
  (< _c0 (|fun.eval Z Z| s885 7))))  (lambda ((_c0 |Z|)) (|fun.eval Z Z| s889 6)))) (|set.lambda Z Z| (lambda ((_c0 |Z|)) (and
  (|set.in Z| _c0 s427)
  (<= (|fun.eval Z Z| s885 5) _c0)
  (< _c0 (|fun.eval Z Z| s885 6))))  (lambda ((_c0 |Z|)) (|fun.eval Z Z| s889 5)))) (|set.lambda Z Z| (lambda ((_c0 |Z|)) (and
  (|set.in Z| _c0 s427)
  (<= (|fun.eval Z Z| s885 4) _c0)
  (< _c0 (|fun.eval Z Z| s885 5))))  (lambda ((_c0 |Z|)) (|fun.eval Z Z| s889 4)))) (|set.lambda Z Z| (lambda ((_c0 |Z|)) (and
  (|set.in Z| _c0 s427)
  (<= (|fun.eval Z Z| s885 3) _c0)
  (< _c0 (|fun.eval Z Z| s885 4))))  (lambda ((_c0 |Z|)) (|fun.eval Z Z| s889 3)))) (|set.lambda Z Z| (lambda ((_c0 |Z|)) (and
  (|set.in Z| _c0 s427)
  (<= (|fun.eval Z Z| s885 2) _c0)
  (< _c0 (|fun.eval Z Z| s885 3))))  (lambda ((_c0 |Z|)) (|fun.eval Z Z| s889 2)))) (|set.lambda Z Z| (lambda ((_c0 |Z|)) (and
  (|set.in Z| _c0 s427)
  (< _c0 (|fun.eval Z Z| s885 2))))  (lambda ((_c0 |Z|)) (|fun.eval Z Z| s889 1)))))
  :named |Define:aprp:9|))
(assert (!
  (= s630 (- 131072000))
  :named |Define:ctx:681|))
(assert (!
  (= (|fun.eval Z Z| s889 8) 0)
  :named |Define:ctx:1227|))
(assert (!
  (not
    (|set.in Z| s901 (|rel.domain Z Z| s892)))
  :named |Goal|))
(check-sat)
(exit)
